
Gurobi 7.5.2 (linux64) logging started Sat Jun 23 16:33:10 2018

Changed value of parameter LogFile to result/ilp/simNo_7-n_100-m_40-s_7-minVAF_0.05-cov_2000-k_1-fn_0.25-fp_0.0001-na_0.15.ILP.gurobiSolverLog
   Prev: gurobi.log  Default: 
Changed value of parameter TimeLimit to 86400.0
   Prev: 1e+100  Min: 0.0  Max: 1e+100  Default: 1e+100
Optimize a model with 1265601 rows, 330440 columns and 3489120 nonzeros
Variable types: 0 continuous, 330440 integer (330440 binary)
Coefficient statistics:
  Matrix range     [8e-04, 2e+00]
  Objective range  [1e+00, 3e+01]
  Bounds range     [1e+00, 1e+00]
  RHS range        [8e-02, 2e+00]
Found heuristic solution: objective -4651.310539
Presolve removed 365144 rows and 223346 columns (presolve time = 6s) ...
Presolve removed 379337 rows and 223346 columns (presolve time = 11s) ...
Presolve removed 380151 rows and 223346 columns (presolve time = 15s) ...
Presolve removed 380579 rows and 223346 columns (presolve time = 20s) ...
Presolve removed 380579 rows and 223346 columns (presolve time = 25s) ...
Presolve removed 380579 rows and 223346 columns (presolve time = 30s) ...
Presolve removed 380579 rows and 223346 columns (presolve time = 35s) ...
Presolve removed 380579 rows and 223346 columns (presolve time = 41s) ...
Presolve removed 380579 rows and 223346 columns
Presolve time: 44.69s
Presolved: 885022 rows, 107094 columns, 2462087 nonzeros
Variable types: 0 continuous, 107094 integer (107094 binary)
Presolved: 107094 rows, 992116 columns, 2569181 nonzeros

Presolve removed 107094 rows and 992116 columns

Root simplex log...

Iteration    Objective       Primal Inf.    Dual Inf.      Time
       0    2.5894238e+01   0.000000e+00   3.531800e+04     55s
    5679   -4.7109032e+01   0.000000e+00   0.000000e+00     57s
    5679   -4.7109032e+01   0.000000e+00   0.000000e+00     59s

Root relaxation: objective -4.710903e+01, 5679 iterations, 10.74 seconds
Total elapsed time = 60.81s
Total elapsed time = 68.93s
Total elapsed time = 76.54s

    Nodes    |    Current Node    |     Objective Bounds      |     Work
 Expl Unexpl |  Obj  Depth IntInf | Incumbent    BestBd   Gap | It/Node Time

     0     0  -47.10903    0  302 -4651.3105  -47.10903  99.0%     -   85s
H    0     0                     -54.8007219  -47.10903  14.0%     -   93s
     0     0  -49.06671    0  323  -54.80072  -49.06671  10.5%     -  106s
     0     0  -50.34043    0  349  -54.80072  -50.34043  8.14%     -  133s
     0     0  -50.34043    0  350  -54.80072  -50.34043  8.14%     -  170s
     0     0  -51.18898    0  275  -54.80072  -51.18898  6.59%     -  206s
     0     0  -51.18898    0  201  -54.80072  -51.18898  6.59%     -  901s
     0     0  -51.18898    0  205  -54.80072  -51.18898  6.59%     -  903s
     0     0  -51.18898    0  210  -54.80072  -51.18898  6.59%     -  904s
     0     0  -51.18898    0  210  -54.80072  -51.18898  6.59%     -  905s
     0     0  -52.28874    0   81  -54.80072  -52.28874  4.58%     -  905s
     0     0  -52.28874    0   82  -54.80072  -52.28874  4.58%     -  906s
     0     0  -52.28874    0   85  -54.80072  -52.28874  4.58%     -  907s
     0     0  -52.45620    0   88  -54.80072  -52.45620  4.28%     -  908s
     0     0  -52.45620    0   89  -54.80072  -52.45620  4.28%     -  909s
     0     0  -52.45620    0   81  -54.80072  -52.45620  4.28%     -  911s
     0     0  -52.48970    0   85  -54.80072  -52.48970  4.22%     -  912s
     0     0  -52.50405    0   85  -54.80072  -52.50405  4.19%     -  912s
     0     0  -52.50405    0   87  -54.80072  -52.50405  4.19%     -  913s
     0     0  -52.50405    0   87  -54.80072  -52.50405  4.19%     -  914s
     0     0  -52.50405    0  185  -54.80072  -52.50405  4.19%     -  924s
     0     0  -52.50405    0   78  -54.80072  -52.50405  4.19%     -  926s
     0     0  -52.50405    0   72  -54.80072  -52.50405  4.19%     -  926s
     0     0  -52.53994    0   79  -54.80072  -52.53994  4.13%     -  927s
     0     0  -52.53994    0   80  -54.80072  -52.53994  4.13%     -  927s
     0     0  -52.79113    0   74  -54.80072  -52.79113  3.67%     -  928s
     0     0  -52.79113    0   73  -54.80072  -52.79113  3.67%     -  929s
     0     0  -52.79113    0   69  -54.80072  -52.79113  3.67%     -  930s
     0     0  -52.79113    0   70  -54.80072  -52.79113  3.67%     -  930s
     0     0  -52.82978    0   82  -54.80072  -52.82978  3.60%     -  931s
     0     0  -52.84696    0   82  -54.80072  -52.84696  3.57%     -  932s
     0     0  -52.84696    0   83  -54.80072  -52.84696  3.57%     -  933s
     0     0  -52.85393    0   83  -54.80072  -52.85393  3.55%     -  933s
     0     0  -52.85393    0   83  -54.80072  -52.85393  3.55%     -  934s
     0     0  -53.29353    0   68  -54.80072  -53.29353  2.75%     -  934s
     0     0  -53.29353    0   69  -54.80072  -53.29353  2.75%     -  935s
     0     0  -53.29353    0   68  -54.80072  -53.29353  2.75%     -  935s
     0     0  -53.31363    0   82  -54.80072  -53.31363  2.71%     -  936s
     0     0  -53.32493    0   83  -54.80072  -53.32493  2.69%     -  936s
     0     0  -53.32493    0   83  -54.80072  -53.32493  2.69%     -  936s
     0     0  -53.46100    0   68  -54.80072  -53.46100  2.44%     -  938s
     0     0  -53.46100    0   79  -54.80072  -53.46100  2.44%     -  939s
     0     0  -53.46100    0   83  -54.80072  -53.46100  2.44%     -  939s
     0     0  -53.54473    0   83  -54.80072  -53.54473  2.29%     -  940s
     0     0  -53.54473    0   80  -54.80072  -53.54473  2.29%     -  940s
     0     0  -53.54473    0   64  -54.80072  -53.54473  2.29%     -  942s
     0     0  -53.54473    0   78  -54.80072  -53.54473  2.29%     -  942s
     0     0  -53.54473    0   79  -54.80072  -53.54473  2.29%     -  943s
     0     0  -53.58062    0   81  -54.80072  -53.58062  2.23%     -  944s
     0     0  -53.58062    0   83  -54.80072  -53.58062  2.23%     -  944s
     0     0  -53.69545    0   67  -54.80072  -53.69545  2.02%     -  946s
     0     0  -53.69545    0   79  -54.80072  -53.69545  2.02%     -  946s
     0     0  -53.69545    0   77  -54.80072  -53.69545  2.02%     -  947s
     0     0  -53.70023    0   84  -54.80072  -53.70023  2.01%     -  948s
     0     0  -53.70023    0   84  -54.80072  -53.70023  2.01%     -  948s
     0     0  -53.79593    0   78  -54.80072  -53.79593  1.83%     -  950s
     0     0  -53.79593    0   73  -54.80072  -53.79593  1.83%     -  951s
     0     0  -53.79593    0   82  -54.80072  -53.79593  1.83%     -  951s
     0     0  -53.79593    0  151  -54.80072  -53.79593  1.83%     -  953s
     0     0  -53.79593    0   64  -54.80072  -53.79593  1.83%     -  954s
     0     0  -53.79593    0   71  -54.80072  -53.79593  1.83%     -  954s
     0     0  -53.86291    0   72  -54.80072  -53.86291  1.71%     -  954s
     0     0  -53.86291    0   73  -54.80072  -53.86291  1.71%     -  954s
     0     0  -54.29833    0   49  -54.80072  -54.29833  0.92%     -  955s
     0     0  -54.29833    0   73  -54.80072  -54.29833  0.92%     -  956s
     0     0  -54.29833    0   70  -54.80072  -54.29833  0.92%     -  956s
     0     0  -54.29833    0   51  -54.80072  -54.29833  0.92%     -  956s
     0     0     cutoff    0       -54.80072  -54.80072  0.00%     -  956s
     0     0     cutoff    0       -54.80072  -54.80072  0.00%     -  956s

Cutting planes:
  Gomory: 8
  Clique: 4
  Zero half: 26

Explored 1 nodes (30892 simplex iterations) in 956.63 seconds
Thread count was 1 (of 80 available processors)

Solution count 6: -54.8007 -54.8007 -54.8007 ... -4651.31

Optimal solution found (tolerance 1.00e-04)
Best objective -5.480072190988e+01, best bound -5.480072190988e+01, gap 0.0000%
